1600 3200
1 2 1
1 41 5
2 3 1
2 42 3
3 4 5
3 43 1
4 5 1
4 44 1
5 6 2
5 45 2
6 7 5
6 46 3
7 8 3
7 47 1
8 9 2
8 48 1
9 10 5
9 49 1
10 11 1
10 50 4
11 12 4
11 51 4
12 13 2
12 52 5
13 14 4
13 53 2
14 15 4
14 54 2
15 16 3
15 55 1
16 17 1
16 56 1
17 18 1
17 57 5
18 19 5
18 58 4
19 20 2
19 59 4
20 21 1
20 60 1
21 22 2
21 61 2
22 23 1
22 62 3
23 24 2
23 63 1
24 25 1
24 64 2
25 26 1
25 65 4
26 27 5
26 66 5
27 28 4
27 67 4
28 29 3
28 68 1
29 30 4
29 69 5
30 31 2
30 70 2
31 32 5
31 71 2
32 33 2
32 72 1
33 34 4
33 73 1
34 35 5
34 74 1
35 36 5
35 75 1
36 37 5
36 76 1
37 38 2
37 77 3
38 39 2
38 78 1
39 40 3
39 79 2
40 80 3
41 42 2
41 81 4
42 43 4
42 82 2
43 44 4
43 83 5
44 45 1
44 84 2
45 46 3
45 85 5
46 47 3
46 86 4
47 48 2
47 87 3
48 49 2
48 88 5
49 50 5
49 89 1
50 51 4
50 90 1
51 52 4
51 91 4
52 53 2
52 92 4
53 54 3
53 93 2
54 55 3
54 94 3
55 56 2
55 95 5
56 57 5
56 96 4
57 58 5
57 97 3
58 59 4
58 98 3
59 60 4
59 99 5
60 61 5
60 100 3
61 62 2
61 101 1
62 63 3
62 102 2
63 64 4
63 103 3
64 65 2
64 104 3
65 66 2
65 105 5
66 67 1
66 106 4
67 68 4
67 107 1
68 69 5
68 108 5
69 70 1
69 109 5
70 71 5
70 110 4
71 72 2
71 111 2
72 73 1
72 112 4
73 74 5
73 113 1
74 75 1
74 114 5
75 76 3
75 115 1
76 77 5
76 116 2
77 78 1
77 117 4
78 79 2
78 118 1
79 80 5
79 119 4
80 120 3
81 82 1
81 121 4
82 83 5
82 122 5
83 84 3
83 123 2
84 85 4
84 124 2
85 86 2
85 125 4
86 87 2
86 126 4
87 88 2
87 127 2
88 89 1
88 128 5
89 90 4
89 129 3
90 91 3
90 130 4
91 92 3
91 131 2
92 93 5
92 132 3
93 94 5
93 133 5
94 95 5
94 134 2
95 96 3
95 135 5
96 97 2
96 136 2
97 98 1
97 137 3
98 99 5
98 138 4
99 100 4
99 139 2
100 101 2
100 140 4
101 102 4
101 141 2
102 103 5
102 142 3
103 104 2
103 143 2
104 105 3
104 144 2
105 106 2
105 145 3
106 107 5
106 146 5
107 108 1
107 147 4
108 109 5
108 148 1
109 110 4
109 149 2
110 111 3
110 150 3
111 112 2
111 151 1
112 113 4
112 152 2
113 114 2
113 153 5
114 115 2
114 154 1
115 116 4
115 155 4
116 117 1
116 156 2
117 118 4
117 157 2
118 119 2
118 158 4
119 120 5
119 159 3
120 160 2
121 122 1
121 161 1
122 123 1
122 162 3
123 124 3
123 163 5
124 125 5
124 164 2
125 126 2
125 165 2
126 127 1
126 166 4
127 128 2
127 167 4
128 129 3
128 168 5
129 130 4
129 169 3
130 131 5
130 170 2
131 132 1
131 171 3
132 133 5
132 172 1
133 134 1
133 173 2
134 135 1
134 174 5
135 136 5
135 175 3
136 137 4
136 176 4
137 138 4
137 177 2
138 139 1
138 178 2
139 140 5
139 179 1
140 141 1
140 180 4
141 142 5
141 181 4
142 143 4
142 182 3
143 144 3
143 183 1
144 145 2
144 184 5
145 146 4
145 185 2
146 147 3
146 186 2
147 148 5
147 187 4
148 149 4
148 188 2
149 150 1
149 189 5
150 151 2
150 190 3
151 152 3
151 191 4
152 153 3
152 192 4
153 154 3
153 193 2
154 155 3
154 194 4
155 156 4
155 195 3
156 157 1
156 196 5
157 158 4
157 197 3
158 159 2
158 198 5
159 160 4
159 199 2
160 200 5
161 162 2
161 201 5
162 163 4
162 202 4
163 164 5
163 203 4
164 165 3
164 204 3
165 166 2
165 205 4
166 167 1
166 206 1
167 168 3
167 207 5
168 169 5
168 208 2
169 170 1
169 209 4
170 171 3
170 210 5
171 172 3
171 211 3
172 173 2
172 212 1
173 174 4
173 213 4
174 175 4
174 214 5
175 176 5
175 215 4
176 177 1
176 216 1
177 178 3
177 217 3
178 179 4
178 218 3
179 180 4
179 219 5
180 181 1
180 220 5
181 182 5
181 221 4
182 183 4
182 222 3
183 184 1
183 223 3
184 185 3
184 224 2
185 186 1
185 225 5
186 187 3
186 226 2
187 188 4
187 227 5
188 189 3
188 228 2
189 190 2
189 229 3
190 191 2
190 230 2
191 192 5
191 231 4
192 193 1
192 232 2
193 194 1
193 233 3
194 195 4
194 234 2
195 196 3
195 235 4
196 197 1
196 236 5
197 198 4
197 237 4
198 199 1
198 238 1
199 200 2
199 239 2
200 240 3
201 202 1
201 241 2
202 203 2
202 242 4
203 204 3
203 243 4
204 205 1
204 244 1
205 206 1
205 245 3
206 207 3
206 246 2
207 208 4
207 247 2
208 209 5
208 248 3
209 210 5
209 249 1
210 211 1
210 250 1
211 212 3
211 251 2
212 213 4
212 252 1
213 214 2
213 253 3
214 215 3
214 254 2
215 216 5
215 255 5
216 217 4
216 256 4
217 218 5
217 257 1
218 219 2
218 258 3
219 220 3
219 259 4
220 221 2
220 260 1
221 222 2
221 261 5
222 223 3
222 262 3
223 224 1
223 263 3
224 225 4
224 264 2
225 226 4
225 265 1
226 227 1
226 266 4
227 228 5
227 267 1
228 229 5
228 268 4
229 230 4
229 269 1
230 231 1
230 270 5
231 232 2
231 271 2
232 233 5
232 272 2
233 234 2
233 273 3
234 235 4
234 274 2
235 236 4
235 275 2
236 237 3
236 276 5
237 238 3
237 277 3
238 239 3
238 278 4
239 240 2
239 279 5
240 280 3
241 242 3
241 281 3
242 243 2
242 282 3
243 244 3
243 283 2
244 245 2
244 284 2
245 246 4
245 285 3
246 247 2
246 286 2
247 248 5
247 287 2
248 249 2
248 288 1
249 250 5
249 289 3
250 251 5
250 290 3
251 252 4
251 291 1
252 253 4
252 292 1
253 254 2
253 293 3
254 255 1
254 294 3
255 256 1
255 295 1
256 257 2
256 296 4
257 258 4
257 297 4
258 259 4
258 298 4
259 260 1
259 299 5
260 261 4
260 300 4
261 262 5
261 301 5
262 263 5
262 302 2
263 264 4
263 303 4
264 265 3
264 304 5
265 266 2
265 305 4
266 267 4
266 306 2
267 268 2
267 307 3
268 269 4
268 308 1
269 270 3
269 309 1
270 271 2
270 310 3
271 272 3
271 311 1
272 273 1
272 312 5
273 274 5
273 313 1
274 275 3
274 314 2
275 276 5
275 315 2
276 277 4
276 316 2
277 278 5
277 317 2
278 279 4
278 318 4
279 280 1
279 319 1
280 320 2
281 282 2
281 321 5
282 283 4
282 322 4
283 284 1
283 323 3
284 285 3
284 324 1
285 286 1
285 325 3
286 287 5
286 326 3
287 288 3
287 327 3
288 289 3
288 328 5
289 290 2
289 329 2
290 291 1
290 330 5
291 292 1
291 331 4
292 293 4
292 332 2
293 294 3
293 333 2
294 295 5
294 334 4
295 296 4
295 335 1
296 297 2
296 336 5
297 298 4
297 337 2
298 299 3
298 338 1
299 300 4
299 339 1
300 301 3
300 340 2
301 302 3
301 341 1
302 303 3
302 342 2
303 304 5
303 343 2
304 305 1
304 344 3
305 306 5
305 345 1
306 307 2
306 346 1
307 308 2
307 347 4
308 309 1
308 348 2
309 310 2
309 349 1
310 311 2
310 350 3
311 312 4
311 351 2
312 313 3
312 352 5
313 314 4
313 353 1
314 315 4
314 354 4
315 316 3
315 355 2
316 317 2
316 356 1
317 318 4
317 357 3
318 319 1
318 358 2
319 320 4
319 359 3
320 360 1
321 322 4
321 361 5
322 323 2
322 362 5
323 324 2
323 363 3
324 325 3
324 364 5
325 326 5
325 365 4
326 327 5
326 366 4
327 328 4
327 367 5
328 329 5
328 368 2
329 330 1
329 369 1
330 331 3
330 370 5
331 332 5
331 371 2
332 333 4
332 372 2
333 334 3
333 373 4
334 335 1
334 374 5
335 336 1
335 375 1
336 337 4
336 376 4
337 338 4
337 377 1
338 339 4
338 378 2
339 340 2
339 379 2
340 341 1
340 380 2
341 342 3
341 381 4
342 343 3
342 382 3
343 344 3
343 383 4
344 345 3
344 384 1
345 346 4
345 385 2
346 347 3
346 386 5
347 348 3
347 387 4
348 349 5
348 388 5
349 350 5
349 389 1
350 351 4
350 390 2
351 352 1
351 391 3
352 353 3
352 392 5
353 354 2
353 393 1
354 355 1
354 394 1
355 356 3
355 395 1
356 357 2
356 396 2
357 358 4
357 397 5
358 359 2
358 398 2
359 360 5
359 399 4
360 400 4
361 362 2
361 401 2
362 363 5
362 402 1
363 364 4
363 403 1
364 365 5
364 404 3
365 366 1
365 405 3
366 367 5
366 406 3
367 368 5
367 407 1
368 369 1
368 408 4
369 370 1
369 409 1
370 371 3
370 410 4
371 372 1
371 411 2
372 373 5
372 412 3
373 374 4
373 413 2
374 375 4
374 414 5
375 376 3
375 415 4
376 377 4
376 416 3
377 378 2
377 417 3
378 379 3
378 418 1
379 380 5
379 419 5
380 381 5
380 420 5
381 382 3
381 421 1
382 383 3
382 422 3
383 384 3
383 423 5
384 385 2
384 424 3
385 386 4
385 425 1
386 387 1
386 426 2
387 388 5
387 427 4
388 389 2
388 428 4
389 390 3
389 429 2
390 391 5
390 430 2
391 392 3
391 431 3
392 393 3
392 432 1
393 394 4
393 433 1
394 395 2
394 434 4
395 396 1
395 435 2
396 397 1
396 436 5
397 398 5
397 437 4
398 399 5
398 438 2
399 400 5
399 439 1
400 440 2
401 402 1
401 441 3
402 403 3
402 442 4
403 404 4
403 443 3
404 405 1
404 444 5
405 406 5
405 445 4
406 407 2
406 446 4
407 408 3
407 447 1
408 409 4
408 448 2
409 410 3
409 449 1
410 411 4
410 450 3
411 412 3
411 451 3
412 413 3
412 452 5
413 414 2
413 453 1
414 415 4
414 454 1
415 416 3
415 455 5
416 417 3
416 456 2
417 418 5
417 457 2
418 419 5
418 458 5
419 420 4
419 459 4
420 421 5
420 460 3
421 422 2
421 461 4
422 423 1
422 462 3
423 424 5
423 463 2
424 425 1
424 464 4
425 426 4
425 465 5
426 427 4
426 466 5
427 428 5
427 467 3
428 429 3
428 468 5
429 430 3
429 469 2
430 431 5
430 470 2
431 432 3
431 471 2
432 433 5
432 472 3
433 434 2
433 473 3
434 435 4
434 474 5
435 436 3
435 475 5
436 437 2
436 476 4
437 438 3
437 477 2
438 439 5
438 478 4
439 440 3
439 479 2
440 480 5
441 442 5
441 481 2
442 443 2
442 482 2
443 444 4
443 483 5
444 445 3
444 484 5
445 446 5
445 485 5
446 447 5
446 486 2
447 448 2
447 487 4
448 449 3
448 488 3
449 450 4
449 489 2
450 451 2
450 490 2
451 452 4
451 491 5
452 453 4
452 492 1
453 454 2
453 493 2
454 455 4
454 494 5
455 456 3
455 495 2
456 457 3
456 496 3
457 458 5
457 497 5
458 459 3
458 498 1
459 460 4
459 499 5
460 461 3
460 500 5
461 462 5
461 501 5
462 463 2
462 502 3
463 464 1
463 503 2
464 465 1
464 504 4
465 466 5
465 505 5
466 467 2
466 506 4
467 468 4
467 507 2
468 469 1
468 508 1
469 470 5
469 509 3
470 471 4
470 510 2
471 472 3
471 511 2
472 473 3
472 512 1
473 474 1
473 513 4
474 475 5
474 514 4
475 476 5
475 515 2
476 477 5
476 516 1
477 478 4
477 517 3
478 479 4
478 518 5
479 480 5
479 519 3
480 520 5
481 482 5
481 521 3
482 483 1
482 522 4
483 484 1
483 523 3
484 485 3
484 524 2
485 486 5
485 525 4
486 487 1
486 526 4
487 488 4
487 527 5
488 489 2
488 528 2
489 490 5
489 529 4
490 491 3
490 530 4
491 492 1
491 531 2
492 493 1
492 532 2
493 494 3
493 533 5
494 495 1
494 534 5
495 496 3
495 535 1
496 497 1
496 536 2
497 498 2
497 537 3
498 499 4
498 538 3
499 500 3
499 539 2
500 501 1
500 540 5
501 502 2
501 541 5
502 503 5
502 542 1
503 504 5
503 543 5
504 505 3
504 544 5
505 506 2
505 545 1
506 507 1
506 546 3
507 508 2
507 547 4
508 509 4
508 548 3
509 510 2
509 549 5
510 511 3
510 550 4
511 512 1
511 551 1
512 513 3
512 552 3
513 514 1
513 553 4
514 515 4
514 554 2
515 516 5
515 555 5
516 517 4
516 556 4
517 518 5
517 557 5
518 519 1
518 558 5
519 520 2
519 559 4
520 560 4
521 522 2
521 561 1
522 523 3
522 562 5
523 524 2
523 563 1
524 525 3
524 564 2
525 526 2
525 565 3
526 527 4
526 566 3
527 528 4
527 567 1
528 529 1
528 568 5
529 530 5
529 569 2
530 531 5
530 570 4
531 532 1
531 571 4
532 533 4
532 572 3
533 534 5
533 573 1
534 535 1
534 574 2
535 536 5
535 575 2
536 537 3
536 576 3
537 538 5
537 577 4
538 539 4
538 578 3
539 540 4
539 579 3
540 541 1
540 580 2
541 542 3
541 581 5
542 543 1
542 582 5
543 544 2
543 583 5
544 545 1
544 584 1
545 546 1
545 585 2
546 547 4
546 586 2
547 548 2
547 587 2
548 549 5
548 588 5
549 550 2
549 589 5
550 551 3
550 590 1
551 552 3
551 591 5
552 553 1
552 592 1
553 554 3
553 593 5
554 555 5
554 594 2
555 556 2
555 595 2
556 557 5
556 596 2
557 558 1
557 597 1
558 559 4
558 598 3
559 560 3
559 599 5
560 600 5
561 562 5
561 601 2
562 563 5
562 602 3
563 564 4
563 603 2
564 565 4
564 604 5
565 566 3
565 605 3
566 567 2
566 606 3
567 568 3
567 607 5
568 569 5
568 608 1
569 570 2
569 609 4
570 571 3
570 610 4
571 572 5
571 611 5
572 573 4
572 612 2
573 574 3
573 613 5
574 575 2
574 614 4
575 576 5
575 615 5
576 577 3
576 616 1
577 578 5
577 617 2
578 579 3
578 618 4
579 580 1
579 619 4
580 581 1
580 620 3
581 582 1
581 621 1
582 583 5
582 622 1
583 584 3
583 623 5
584 585 3
584 624 3
585 586 4
585 625 2
586 587 5
586 626 5
587 588 1
587 627 1
588 589 1
588 628 5
589 590 5
589 629 3
590 591 3
590 630 1
591 592 1
591 631 4
592 593 5
592 632 1
593 594 4
593 633 4
594 595 3
594 634 2
595 596 2
595 635 3
596 597 3
596 636 1
597 598 1
597 637 5
598 599 5
598 638 2
599 600 3
599 639 5
600 640 1
601 602 2
601 641 2
602 603 3
602 642 5
603 604 5
603 643 1
604 605 2
604 644 2
605 606 3
605 645 4
606 607 2
606 646 4
607 608 2
607 647 2
608 609 5
608 648 3
609 610 4
609 649 5
610 611 2
610 650 3
611 612 5
611 651 2
612 613 4
612 652 1
613 614 2
613 653 1
614 615 2
614 654 3
615 616 3
615 655 1
616 617 4
616 656 1
617 618 3
617 657 2
618 619 2
618 658 2
619 620 4
619 659 1
620 621 5
620 660 1
621 622 2
621 661 1
622 623 3
622 662 1
623 624 4
623 663 4
624 625 5
624 664 5
625 626 2
625 665 1
626 627 4
626 666 3
627 628 4
627 667 4
628 629 5
628 668 5
629 630 5
629 669 3
630 631 4
630 670 3
631 632 3
631 671 1
632 633 4
632 672 4
633 634 2
633 673 2
634 635 3
634 674 4
635 636 4
635 675 4
636 637 4
636 676 2
637 638 4
637 677 5
638 639 1
638 678 1
639 640 2
639 679 5
640 680 5
641 642 1
641 681 5
642 643 4
642 682 3
643 644 4
643 683 3
644 645 1
644 684 5
645 646 2
645 685 4
646 647 1
646 686 2
647 648 4
647 687 4
648 649 5
648 688 4
649 650 2
649 689 5
650 651 3
650 690 3
651 652 3
651 691 2
652 653 4
652 692 5
653 654 3
653 693 1
654 655 2
654 694 1
655 656 4
655 695 4
656 657 1
656 696 1
657 658 2
657 697 1
658 659 2
658 698 3
659 660 1
659 699 5
660 661 2
660 700 3
661 662 1
661 701 5
662 663 2
662 702 5
663 664 3
663 703 2
664 665 3
664 704 3
665 666 4
665 705 1
666 667 4
666 706 4
667 668 2
667 707 3
668 669 4
668 708 5
669 670 5
669 709 1
670 671 5
670 710 4
671 672 5
671 711 2
672 673 1
672 712 5
673 674 4
673 713 2
674 675 5
674 714 4
675 676 5
675 715 4
676 677 4
676 716 5
677 678 5
677 717 2
678 679 2
678 718 4
679 680 1
679 719 4
680 720 3
681 682 4
681 721 2
682 683 1
682 722 3
683 684 3
683 723 2
684 685 5
684 724 5
685 686 4
685 725 4
686 687 1
686 726 2
687 688 2
687 727 4
688 689 1
688 728 2
689 690 4
689 729 4
690 691 1
690 730 3
691 692 2
691 731 2
692 693 2
692 732 3
693 694 5
693 733 3
694 695 4
694 734 4
695 696 4
695 735 5
696 697 3
696 736 4
697 698 1
697 737 4
698 699 4
698 738 3
699 700 2
699 739 4
700 701 4
700 740 3
701 702 5
701 741 3
702 703 4
702 742 3
703 704 5
703 743 3
704 705 1
704 744 4
705 706 2
705 745 1
706 707 1
706 746 2
707 708 2
707 747 5
708 709 2
708 748 2
709 710 4
709 749 1
710 711 2
710 750 4
711 712 2
711 751 3
712 713 4
712 752 4
713 714 2
713 753 5
714 715 2
714 754 4
715 716 1
715 755 2
716 717 3
716 756 2
717 718 4
717 757 4
718 719 2
718 758 1
719 720 4
719 759 4
720 760 5
721 722 5
721 761 5
722 723 5
722 762 1
723 724 4
723 763 2
724 725 4
724 764 2
725 726 4
725 765 3
726 727 1
726 766 3
727 728 1
727 767 3
728 729 2
728 768 3
729 730 1
729 769 1
730 731 2
730 770 2
731 732 2
731 771 3
732 733 4
732 772 5
733 734 5
733 773 1
734 735 1
734 774 5
735 736 3
735 775 2
736 737 2
736 776 3
737 738 4
737 777 4
738 739 5
738 778 3
739 740 5
739 779 4
740 741 5
740 780 2
741 742 4
741 781 5
742 743 5
742 782 3
743 744 5
743 783 5
744 745 5
744 784 2
745 746 4
745 785 4
746 747 1
746 786 2
747 748 2
747 787 5
748 749 5
748 788 3
749 750 3
749 789 5
750 751 4
750 790 1
751 752 1
751 791 2
752 753 5
752 792 3
753 754 3
753 793 1
754 755 4
754 794 5
755 756 5
755 795 4
756 757 4
756 796 3
757 758 1
757 797 5
758 759 4
758 798 3
759 760 3
759 799 5
760 800 3
761 762 1
761 801 2
762 763 1
762 802 5
763 764 5
763 803 3
764 765 1
764 804 5
765 766 2
765 805 1
766 767 5
766 806 3
767 768 1
767 807 5
768 769 5
768 808 3
769 770 3
769 809 3
770 771 2
770 810 2
771 772 5
771 811 3
772 773 2
772 812 3
773 774 3
773 813 4
774 775 3
774 814 1
775 776 3
775 815 4
776 777 4
776 816 5
777 778 4
777 817 4
778 779 5
778 818 1
779 780 5
779 819 4
780 781 5
780 820 4
781 782 3
781 821 3
782 783 3
782 822 1
783 784 2
783 823 4
784 785 4
784 824 1
785 786 3
785 825 2
786 787 3
786 826 3
787 788 3
787 827 2
788 789 3
788 828 4
789 790 5
789 829 4
790 791 4
790 830 4
791 792 3
791 831 1
792 793 3
792 832 2
793 794 5
793 833 5
794 795 1
794 834 3
795 796 5
795 835 2
796 797 5
796 836 2
797 798 3
797 837 3
798 799 5
798 838 4
799 800 1
799 839 3
800 840 3
801 802 2
801 841 1
802 803 5
802 842 5
803 804 5
803 843 1
804 805 3
804 844 4
805 806 5
805 845 3
806 807 3
806 846 5
807 808 1
807 847 4
808 809 3
808 848 1
809 810 5
809 849 5
810 811 5
810 850 1
811 812 1
811 851 5
812 813 3
812 852 5
813 814 5
813 853 1
814 815 3
814 854 2
815 816 3
815 855 5
816 817 3
816 856 5
817 818 5
817 857 5
818 819 4
818 858 2
819 820 4
819 859 1
820 821 1
820 860 5
821 822 3
821 861 3
822 823 2
822 862 3
823 824 1
823 863 3
824 825 4
824 864 4
825 826 3
825 865 1
826 827 3
826 866 3
827 828 1
827 867 2
828 829 4
828 868 5
829 830 1
829 869 1
830 831 3
830 870 2
831 832 3
831 871 1
832 833 3
832 872 1
833 834 2
833 873 4
834 835 5
834 874 3
835 836 5
835 875 2
836 837 3
836 876 5
837 838 5
837 877 4
838 839 2
838 878 3
839 840 3
839 879 5
840 880 5
841 842 2
841 881 4
842 843 2
842 882 3
843 844 4
843 883 3
844 845 4
844 884 4
845 846 5
845 885 2
846 847 4
846 886 4
847 848 2
847 887 1
848 849 1
848 888 5
849 850 1
849 889 5
850 851 4
850 890 4
851 852 2
851 891 4
852 853 5
852 892 4
853 854 3
853 893 5
854 855 3
854 894 2
855 856 1
855 895 1
856 857 5
856 896 3
857 858 1
857 897 1
858 859 3
858 898 3
859 860 1
859 899 3
860 861 5
860 900 3
861 862 1
861 901 3
862 863 1
862 902 1
863 864 3
863 903 3
864 865 1
864 904 4
865 866 3
865 905 4
866 867 4
866 906 1
867 868 3
867 907 5
868 869 3
868 908 4
869 870 5
869 909 3
870 871 3
870 910 3
871 872 5
871 911 3
872 873 4
872 912 1
873 874 1
873 913 3
874 875 5
874 914 1
875 876 1
875 915 2
876 877 1
876 916 1
877 878 1
877 917 1
878 879 3
878 918 1
879 880 1
879 919 3
880 920 5
881 882 5
881 921 2
882 883 4
882 922 2
883 884 3
883 923 5
884 885 3
884 924 3
885 886 3
885 925 4
886 887 3
886 926 4
887 888 3
887 927 5
888 889 1
888 928 4
889 890 5
889 929 4
890 891 4
890 930 3
891 892 3
891 931 2
892 893 3
892 932 2
893 894 2
893 933 3
894 895 4
894 934 5
895 896 3
895 935 3
896 897 4
896 936 2
897 898 5
897 937 5
898 899 2
898 938 2
899 900 2
899 939 5
900 901 5
900 940 2
901 902 2
901 941 1
902 903 1
902 942 2
903 904 1
903 943 3
904 905 3
904 944 4
905 906 3
905 945 5
906 907 4
906 946 2
907 908 3
907 947 1
908 909 1
908 948 4
909 910 4
909 949 4
910 911 4
910 950 3
911 912 4
911 951 4
912 913 1
912 952 2
913 914 2
913 953 4
914 915 2
914 954 4
915 916 4
915 955 5
916 917 4
916 956 3
917 918 4
917 957 1
918 919 2
918 958 4
919 920 4
919 959 5
920 960 3
921 922 5
921 961 1
922 923 2
922 962 5
923 924 3
923 963 5
924 925 4
924 964 3
925 926 5
925 965 4
926 927 5
926 966 2
927 928 2
927 967 2
928 929 3
928 968 1
929 930 1
929 969 2
930 931 1
930 970 1
931 932 1
931 971 3
932 933 3
932 972 5
933 934 1
933 973 3
934 935 4
934 974 4
935 936 5
935 975 3
936 937 1
936 976 5
937 938 1
937 977 3
938 939 3
938 978 5
939 940 2
939 979 2
940 941 2
940 980 1
941 942 3
941 981 1
942 943 4
942 982 1
943 944 5
943 983 5
944 945 3
944 984 1
945 946 2
945 985 2
946 947 5
946 986 2
947 948 5
947 987 2
948 949 2
948 988 5
949 950 2
949 989 5
950 951 5
950 990 5
951 952 5
951 991 4
952 953 3
952 992 4
953 954 4
953 993 3
954 955 5
954 994 2
955 956 4
955 995 1
956 957 2
956 996 1
957 958 2
957 997 4
958 959 1
958 998 5
959 960 1
959 999 1
960 1000 3
961 962 3
961 1001 4
962 963 3
962 1002 3
963 964 3
963 1003 3
964 965 4
964 1004 2
965 966 2
965 1005 1
966 967 3
966 1006 5
967 968 2
967 1007 3
968 969 5
968 1008 4
969 970 3
969 1009 1
970 971 3
970 1010 4
971 972 4
971 1011 1
972 973 5
972 1012 1
973 974 5
973 1013 2
974 975 2
974 1014 1
975 976 3
975 1015 2
976 977 1
976 1016 4
977 978 5
977 1017 2
978 979 1
978 1018 2
979 980 1
979 1019 1
980 981 2
980 1020 3
981 982 4
981 1021 4
982 983 3
982 1022 3
983 984 2
983 1023 3
984 985 2
984 1024 3
985 986 2
985 1025 5
986 987 2
986 1026 5
987 988 2
987 1027 4
988 989 1
988 1028 2
989 990 2
989 1029 1
990 991 1
990 1030 1
991 992 2
991 1031 4
992 993 1
992 1032 4
993 994 2
993 1033 1
994 995 4
994 1034 1
995 996 5
995 1035 2
996 997 1
996 1036 3
997 998 1
997 1037 3
998 999 1
998 1038 4
999 1000 4
999 1039 1
1000 1040 4
1001 1002 3
1001 1041 4
1002 1003 3
1002 1042 1
1003 1004 1
1003 1043 4
1004 1005 1
1004 1044 5
1005 1006 1
1005 1045 1
1006 1007 3
1006 1046 2
1007 1008 2
1007 1047 4
1008 1009 3
1008 1048 3
1009 1010 4
1009 1049 4
1010 1011 1
1010 1050 3
1011 1012 5
1011 1051 4
1012 1013 1
1012 1052 2
1013 1014 2
1013 1053 5
1014 1015 3
1014 1054 1
1015 1016 4
1015 1055 5
1016 1017 3
1016 1056 1
1017 1018 1
1017 1057 1
1018 1019 4
1018 1058 5
1019 1020 5
1019 1059 2
1020 1021 2
1020 1060 5
1021 1022 5
1021 1061 2
1022 1023 1
1022 1062 1
1023 1024 1
1023 1063 2
1024 1025 5
1024 1064 5
1025 1026 2
1025 1065 2
1026 1027 2
1026 1066 1
1027 1028 1
1027 1067 3
1028 1029 1
1028 1068 1
1029 1030 2
1029 1069 3
1030 1031 5
1030 1070 4
1031 1032 1
1031 1071 3
1032 1033 4
1032 1072 1
1033 1034 2
1033 1073 2
1034 1035 2
1034 1074 2
1035 1036 3
1035 1075 4
1036 1037 2
1036 1076 2
1037 1038 3
1037 1077 4
1038 1039 2
1038 1078 2
1039 1040 3
1039 1079 3
1040 1080 4
1041 1042 5
1041 1081 3
1042 1043 4
1042 1082 5
1043 1044 1
1043 1083 4
1044 1045 4
1044 1084 1
1045 1046 4
1045 1085 3
1046 1047 5
1046 1086 2
1047 1048 1
1047 1087 3
1048 1049 1
1048 1088 5
1049 1050 3
1049 1089 4
1050 1051 4
1050 1090 3
1051 1052 4
1051 1091 2
1052 1053 2
1052 1092 2
1053 1054 3
1053 1093 1
1054 1055 3
1054 1094 1
1055 1056 2
1055 1095 5
1056 1057 5
1056 1096 2
1057 1058 2
1057 1097 5
1058 1059 1
1058 1098 3
1059 1060 3
1059 1099 2
1060 1061 1
1060 1100 5
1061 1062 1
1061 1101 5
1062 1063 2
1062 1102 5
1063 1064 3
1063 1103 5
1064 1065 2
1064 1104 3
1065 1066 5
1065 1105 4
1066 1067 3
1066 1106 1
1067 1068 2
1067 1107 3
1068 1069 1
1068 1108 4
1069 1070 3
1069 1109 4
1070 1071 4
1070 1110 3
1071 1072 5
1071 1111 3
1072 1073 5
1072 1112 1
1073 1074 3
1073 1113 3
1074 1075 1
1074 1114 4
1075 1076 4
1075 1115 3
1076 1077 2
1076 1116 5
1077 1078 1
1077 1117 3
1078 1079 2
1078 1118 5
1079 1080 3
1079 1119 5
1080 1120 2
1081 1082 3
1081 1121 4
1082 1083 3
1082 1122 5
1083 1084 4
1083 1123 4
1084 1085 2
1084 1124 1
1085 1086 3
1085 1125 2
1086 1087 1
1086 1126 3
1087 1088 2
1087 1127 3
1088 1089 3
1088 1128 4
1089 1090 1
1089 1129 2
1090 1091 5
1090 1130 1
1091 1092 1
1091 1131 3
1092 1093 2
1092 1132 3
1093 1094 5
1093 1133 3
1094 1095 4
1094 1134 3
1095 1096 1
1095 1135 3
1096 1097 4
1096 1136 1
1097 1098 5
1097 1137 2
1098 1099 4
1098 1138 1
1099 1100 4
1099 1139 1
1100 1101 3
1100 1140 4
1101 1102 5
1101 1141 4
1102 1103 5
1102 1142 3
1103 1104 3
1103 1143 4
1104 1105 1
1104 1144 2
1105 1106 4
1105 1145 1
1106 1107 2
1106 1146 5
1107 1108 4
1107 1147 4
1108 1109 4
1108 1148 4
1109 1110 2
1109 1149 4
1110 1111 1
1110 1150 1
1111 1112 5
1111 1151 5
1112 1113 4
1112 1152 5
1113 1114 1
1113 1153 4
1114 1115 2
1114 1154 3
1115 1116 1
1115 1155 5
1116 1117 1
1116 1156 2
1117 1118 1
1117 1157 1
1118 1119 5
1118 1158 3
1119 1120 5
1119 1159 5
1120 1160 1
1121 1122 5
1121 1161 1
1122 1123 4
1122 1162 4
1123 1124 1
1123 1163 4
1124 1125 2
1124 1164 1
1125 1126 2
1125 1165 1
1126 1127 2
1126 1166 1
1127 1128 3
1127 1167 1
1128 1129 2
1128 1168 4
1129 1130 2
1129 1169 5
1130 1131 1
1130 1170 2
1131 1132 1
1131 1171 5
1132 1133 2
1132 1172 2
1133 1134 4
1133 1173 3
1134 1135 3
1134 1174 2
1135 1136 1
1135 1175 1
1136 1137 5
1136 1176 4
1137 1138 1
1137 1177 3
1138 1139 4
1138 1178 3
1139 1140 4
1139 1179 2
1140 1141 3
1140 1180 1
1141 1142 4
1141 1181 3
1142 1143 1
1142 1182 4
1143 1144 5
1143 1183 2
1144 1145 5
1144 1184 2
1145 1146 5
1145 1185 1
1146 1147 1
1146 1186 3
1147 1148 2
1147 1187 4
1148 1149 2
1148 1188 4
1149 1150 5
1149 1189 3
1150 1151 4
1150 1190 3
1151 1152 2
1151 1191 4
1152 1153 3
1152 1192 1
1153 1154 5
1153 1193 1
1154 1155 1
1154 1194 1
1155 1156 2
1155 1195 2
1156 1157 5
1156 1196 2
1157 1158 2
1157 1197 3
1158 1159 2
1158 1198 4
1159 1160 4
1159 1199 4
1160 1200 3
1161 1162 4
1161 1201 3
1162 1163 3
1162 1202 3
1163 1164 2
1163 1203 1
1164 1165 2
1164 1204 2
1165 1166 4
1165 1205 5
1166 1167 2
1166 1206 1
1167 1168 4
1167 1207 1
1168 1169 1
1168 1208 3
1169 1170 4
1169 1209 5
1170 1171 3
1170 1210 2
1171 1172 2
1171 1211 2
1172 1173 1
1172 1212 3
1173 1174 5
1173 1213 2
1174 1175 3
1174 1214 2
1175 1176 5
1175 1215 3
1176 1177 1
1176 1216 4
1177 1178 3
1177 1217 1
1178 1179 2
1178 1218 1
1179 1180 2
1179 1219 5
1180 1181 2
1180 1220 2
1181 1182 5
1181 1221 3
1182 1183 2
1182 1222 2
1183 1184 1
1183 1223 3
1184 1185 1
1184 1224 2
1185 1186 3
1185 1225 4
1186 1187 3
1186 1226 4
1187 1188 3
1187 1227 1
1188 1189 5
1188 1228 2
1189 1190 1
1189 1229 5
1190 1191 4
1190 1230 3
1191 1192 5
1191 1231 3
1192 1193 1
1192 1232 1
1193 1194 4
1193 1233 4
1194 1195 4
1194 1234 1
1195 1196 1
1195 1235 1
1196 1197 4
1196 1236 4
1197 1198 2
1197 1237 1
1198 1199 5
1198 1238 5
1199 1200 5
1199 1239 3
1200 1240 3
1201 1202 5
1201 1241 4
1202 1203 3
1202 1242 1
1203 1204 2
1203 1243 1
1204 1205 5
1204 1244 5
1205 1206 5
1205 1245 2
1206 1207 3
1206 1246 5
1207 1208 2
1207 1247 4
1208 1209 2
1208 1248 5
1209 1210 2
1209 1249 4
1210 1211 3
1210 1250 3
1211 1212 3
1211 1251 1
1212 1213 5
1212 1252 4
1213 1214 5
1213 1253 2
1214 1215 1
1214 1254 3
1215 1216 5
1215 1255 5
1216 1217 4
1216 1256 4
1217 1218 5
1217 1257 2
1218 1219 1
1218 1258 3
1219 1220 3
1219 1259 5
1220 1221 3
1220 1260 3
1221 1222 4
1221 1261 2
1222 1223 1
1222 1262 5
1223 1224 1
1223 1263 5
1224 1225 4
1224 1264 4
1225 1226 5
1225 1265 2
1226 1227 4
1226 1266 5
1227 1228 2
1227 1267 1
1228 1229 1
1228 1268 4
1229 1230 5
1229 1269 4
1230 1231 5
1230 1270 3
1231 1232 3
1231 1271 3
1232 1233 2
1232 1272 5
1233 1234 2
1233 1273 4
1234 1235 1
1234 1274 2
1235 1236 4
1235 1275 4
1236 1237 2
1236 1276 4
1237 1238 1
1237 1277 4
1238 1239 1
1238 1278 4
1239 1240 4
1239 1279 1
1240 1280 5
1241 1242 1
1241 1281 3
1242 1243 2
1242 1282 3
1243 1244 4
1243 1283 1
1244 1245 2
1244 1284 1
1245 1246 1
1245 1285 5
1246 1247 5
1246 1286 1
1247 1248 2
1247 1287 5
1248 1249 4
1248 1288 2
1249 1250 2
1249 1289 4
1250 1251 3
1250 1290 1
1251 1252 2
1251 1291 1
1252 1253 4
1252 1292 2
1253 1254 3
1253 1293 1
1254 1255 5
1254 1294 5
1255 1256 3
1255 1295 1
1256 1257 3
1256 1296 5
1257 1258 4
1257 1297 1
1258 1259 1
1258 1298 2
1259 1260 5
1259 1299 1
1260 1261 1
1260 1300 3
1261 1262 2
1261 1301 2
1262 1263 1
1262 1302 4
1263 1264 3
1263 1303 1
1264 1265 4
1264 1304 2
1265 1266 5
1265 1305 5
1266 1267 5
1266 1306 2
1267 1268 5
1267 1307 2
1268 1269 4
1268 1308 5
1269 1270 2
1269 1309 3
1270 1271 2
1270 1310 1
1271 1272 4
1271 1311 3
1272 1273 1
1272 1312 2
1273 1274 3
1273 1313 1
1274 1275 3
1274 1314 3
1275 1276 1
1275 1315 2
1276 1277 2
1276 1316 4
1277 1278 4
1277 1317 1
1278 1279 1
1278 1318 5
1279 1280 1
1279 1319 1
1280 1320 2
1281 1282 5
1281 1321 3
1282 1283 5
1282 1322 5
1283 1284 5
1283 1323 3
1284 1285 5
1284 1324 2
1285 1286 1
1285 1325 2
1286 1287 2
1286 1326 3
1287 1288 1
1287 1327 5
1288 1289 4
1288 1328 3
1289 1290 4
1289 1329 2
1290 1291 5
1290 1330 5
1291 1292 5
1291 1331 3
1292 1293 1
1292 1332 1
1293 1294 1
1293 1333 3
1294 1295 3
1294 1334 3
1295 1296 5
1295 1335 3
1296 1297 1
1296 1336 5
1297 1298 5
1297 1337 4
1298 1299 5
1298 1338 2
1299 1300 3
1299 1339 1
1300 1301 5
1300 1340 3
1301 1302 4
1301 1341 2
1302 1303 2
1302 1342 3
1303 1304 3
1303 1343 2
1304 1305 3
1304 1344 3
1305 1306 1
1305 1345 5
1306 1307 4
1306 1346 1
1307 1308 5
1307 1347 1
1308 1309 3
1308 1348 5
1309 1310 2
1309 1349 5
1310 1311 4
1310 1350 4
1311 1312 3
1311 1351 2
1312 1313 4
1312 1352 2
1313 1314 4
1313 1353 4
1314 1315 1
1314 1354 3
1315 1316 4
1315 1355 3
1316 1317 5
1316 1356 4
1317 1318 1
1317 1357 2
1318 1319 1
1318 1358 2
1319 1320 5
1319 1359 5
1320 1360 4
1321 1322 1
1321 1361 5
1322 1323 4
1322 1362 5
1323 1324 3
1323 1363 4
1324 1325 3
1324 1364 2
1325 1326 3
1325 1365 3
1326 1327 4
1326 1366 3
1327 1328 3
1327 1367 4
1328 1329 3
1328 1368 4
1329 1330 4
1329 1369 2
1330 1331 5
1330 1370 5
1331 1332 2
1331 1371 4
1332 1333 4
1332 1372 4
1333 1334 1
1333 1373 3
1334 1335 5
1334 1374 5
1335 1336 3
1335 1375 5
1336 1337 4
1336 1376 2
1337 1338 3
1337 1377 1
1338 1339 3
1338 1378 3
1339 1340 4
1339 1379 4
1340 1341 1
1340 1380 1
1341 1342 3
1341 1381 2
1342 1343 1
1342 1382 2
1343 1344 4
1343 1383 4
1344 1345 5
1344 1384 4
1345 1346 5
1345 1385 2
1346 1347 5
1346 1386 3
1347 1348 1
1347 1387 2
1348 1349 2
1348 1388 5
1349 1350 5
1349 1389 3
1350 1351 3
1350 1390 1
1351 1352 1
1351 1391 2
1352 1353 1
1352 1392 1
1353 1354 5
1353 1393 4
1354 1355 2
1354 1394 1
1355 1356 2
1355 1395 1
1356 1357 2
1356 1396 1
1357 1358 3
1357 1397 5
1358 1359 4
1358 1398 2
1359 1360 1
1359 1399 2
1360 1400 5
1361 1362 2
1361 1401 1
1362 1363 4
1362 1402 3
1363 1364 3
1363 1403 3
1364 1365 1
1364 1404 4
1365 1366 5
1365 1405 5
1366 1367 5
1366 1406 1
1367 1368 5
1367 1407 4
1368 1369 2
1368 1408 5
1369 1370 4
1369 1409 3
1370 1371 4
1370 1410 4
1371 1372 3
1371 1411 5
1372 1373 5
1372 1412 2
1373 1374 2
1373 1413 4
1374 1375 4
1374 1414 3
1375 1376 1
1375 1415 5
1376 1377 3
1376 1416 2
1377 1378 4
1377 1417 5
1378 1379 1
1378 1418 1
1379 1380 5
1379 1419 2
1380 1381 4
1380 1420 4
1381 1382 3
1381 1421 2
1382 1383 3
1382 1422 3
1383 1384 5
1383 1423 5
1384 1385 1
1384 1424 1
1385 1386 4
1385 1425 3
1386 1387 1
1386 1426 4
1387 1388 4
1387 1427 3
1388 1389 4
1388 1428 1
1389 1390 2
1389 1429 3
1390 1391 5
1390 1430 2
1391 1392 4
1391 1431 5
1392 1393 5
1392 1432 2
1393 1394 4
1393 1433 5
1394 1395 4
1394 1434 1
1395 1396 1
1395 1435 2
1396 1397 2
1396 1436 3
1397 1398 1
1397 1437 2
1398 1399 3
1398 1438 1
1399 1400 1
1399 1439 2
1400 1440 4
1401 1402 4
1401 1441 5
1402 1403 4
1402 1442 2
1403 1404 4
1403 1443 4
1404 1405 3
1404 1444 2
1405 1406 4
1405 1445 5
1406 1407 5
1406 1446 1
1407 1408 2
1407 1447 4
1408 1409 5
1408 1448 4
1409 1410 1
1409 1449 1
1410 1411 1
1410 1450 3
1411 1412 3
1411 1451 4
1412 1413 3
1412 1452 2
1413 1414 5
1413 1453 1
1414 1415 4
1414 1454 4
1415 1416 1
1415 1455 1
1416 1417 4
1416 1456 2
1417 1418 4
1417 1457 1
1418 1419 5
1418 1458 1
1419 1420 4
1419 1459 3
1420 1421 2
1420 1460 5
1421 1422 3
1421 1461 3
1422 1423 5
1422 1462 3
1423 1424 3
1423 1463 1
1424 1425 1
1424 1464 3
1425 1426 4
1425 1465 4
1426 1427 1
1426 1466 5
1427 1428 2
1427 1467 3
1428 1429 5
1428 1468 3
1429 1430 5
1429 1469 1
1430 1431 5
1430 1470 1
1431 1432 1
1431 1471 1
1432 1433 2
1432 1472 3
1433 1434 1
1433 1473 4
1434 1435 5
1434 1474 3
1435 1436 4
1435 1475 1
1436 1437 1
1436 1476 5
1437 1438 2
1437 1477 5
1438 1439 4
1438 1478 3
1439 1440 2
1439 1479 4
1440 1480 4
1441 1442 4
1441 1481 3
1442 1443 4
1442 1482 1
1443 1444 5
1443 1483 5
1444 1445 1
1444 1484 2
1445 1446 2
1445 1485 4
1446 1447 5
1446 1486 5
1447 1448 3
1447 1487 3
1448 1449 5
1448 1488 5
1449 1450 2
1449 1489 2
1450 1451 2
1450 1490 3
1451 1452 4
1451 1491 1
1452 1453 5
1452 1492 2
1453 1454 5
1453 1493 5
1454 1455 5
1454 1494 1
1455 1456 1
1455 1495 1
1456 1457 4
1456 1496 3
1457 1458 3
1457 1497 1
1458 1459 4
1458 1498 4
1459 1460 1
1459 1499 3
1460 1461 3
1460 1500 1
1461 1462 4
1461 1501 1
1462 1463 2
1462 1502 4
1463 1464 1
1463 1503 2
1464 1465 5
1464 1504 2
1465 1466 5
1465 1505 1
1466 1467 1
1466 1506 3
1467 1468 2
1467 1507 3
1468 1469 4
1468 1508 1
1469 1470 3
1469 1509 2
1470 1471 4
1470 1510 3
1471 1472 5
1471 1511 5
1472 1473 3
1472 1512 2
1473 1474 4
1473 1513 4
1474 1475 5
1474 1514 2
1475 1476 4
1475 1515 2
1476 1477 3
1476 1516 2
1477 1478 5
1477 1517 5
1478 1479 1
1478 1518 2
1479 1480 5
1479 1519 1
1480 1520 4
1481 1482 4
1481 1521 3
1482 1483 5
1482 1522 5
1483 1484 4
1483 1523 3
1484 1485 3
1484 1524 4
1485 1486 5
1485 1525 3
1486 1487 3
1486 1526 1
1487 1488 5
1487 1527 1
1488 1489 2
1488 1528 2
1489 1490 5
1489 1529 1
1490 1491 1
1490 1530 1
1491 1492 5
1491 1531 4
1492 1493 1
1492 1532 1
1493 1494 5
1493 1533 5
1494 1495 5
1494 1534 3
1495 1496 5
1495 1535 2
1496 1497 2
1496 1536 4
1497 1498 2
1497 1537 1
1498 1499 5
1498 1538 5
1499 1500 1
1499 1539 3
1500 1501 3
1500 1540 4
1501 1502 5
1501 1541 3
1502 1503 2
1502 1542 5
1503 1504 3
1503 1543 5
1504 1505 4
1504 1544 4
1505 1506 5
1505 1545 4
1506 1507 2
1506 1546 3
1507 1508 3
1507 1547 4
1508 1509 3
1508 1548 4
1509 1510 3
1509 1549 5
1510 1511 3
1510 1550 2
1511 1512 5
1511 1551 3
1512 1513 1
1512 1552 4
1513 1514 3
1513 1553 5
1514 1515 1
1514 1554 2
1515 1516 3
1515 1555 4
1516 1517 1
1516 1556 4
1517 1518 4
1517 1557 2
1518 1519 5
1518 1558 5
1519 1520 4
1519 1559 3
1520 1560 2
1521 1522 1
1521 1561 2
1522 1523 3
1522 1562 2
1523 1524 3
1523 1563 1
1524 1525 2
1524 1564 4
1525 1526 2
1525 1565 4
1526 1527 2
1526 1566 1
1527 1528 3
1527 1567 4
1528 1529 3
1528 1568 3
1529 1530 4
1529 1569 1
1530 1531 2
1530 1570 3
1531 1532 3
1531 1571 3
1532 1533 5
1532 1572 4
1533 1534 1
1533 1573 4
1534 1535 1
1534 1574 1
1535 1536 2
1535 1575 4
1536 1537 1
1536 1576 3
1537 1538 5
1537 1577 2
1538 1539 4
1538 1578 1
1539 1540 3
1539 1579 1
1540 1541 1
1540 1580 1
1541 1542 4
1541 1581 3
1542 1543 5
1542 1582 2
1543 1544 1
1543 1583 3
1544 1545 2
1544 1584 1
1545 1546 2
1545 1585 2
1546 1547 5
1546 1586 4
1547 1548 5
1547 1587 5
1548 1549 5
1548 1588 4
1549 1550 1
1549 1589 1
1550 1551 3
1550 1590 2
1551 1552 1
1551 1591 3
1552 1553 3
1552 1592 4
1553 1554 1
1553 1593 1
1554 1555 5
1554 1594 3
1555 1556 4
1555 1595 2
1556 1557 3
1556 1596 3
1557 1558 3
1557 1597 2
1558 1559 5
1558 1598 5
1559 1560 3
1559 1599 4
1560 1600 1
1561 1562 1
1562 1563 1
1563 1564 1
1564 1565 4
1565 1566 5
1566 1567 4
1567 1568 3
1568 1569 1
1569 1570 1
1570 1571 2
1571 1572 1
1572 1573 5
1573 1574 2
1574 1575 1
1575 1576 2
1576 1577 5
1577 1578 2
1578 1579 2
1579 1580 4
1580 1581 5
1581 1582 2
1582 1583 5
1583 1584 1
1584 1585 4
1585 1586 5
1586 1587 1
1587 1588 5
1588 1589 2
1589 1590 1
1590 1591 1
1591 1592 1
1592 1593 4
1593 1594 2
1594 1595 4
1595 1596 1
1596 1597 3
1597 1598 3
1598 1599 4
1599 1600 2
1 1561 1
2 1562 5
3 1563 3
4 1564 1
5 1565 2
6 1566 5
7 1567 4
8 1568 4
9 1569 3
10 1570 4
11 1571 2
12 1572 1
13 1573 1
14 1574 3
15 1575 4
16 1576 1
17 1577 2
18 1578 2
19 1579 4
20 1580 2
21 1581 4
22 1582 4
23 1583 5
24 1584 1
25 1585 5
26 1586 2
27 1587 2
28 1588 4
29 1589 4
30 1590 5
31 1591 2
32 1592 4
33 1593 4
34 1594 4
35 1595 1
36 1596 5
37 1597 2
38 1598 4
39 1599 5
40 1600 5
1 40 1
41 80 1
81 120 4
121 160 3
161 200 1
201 240 1
241 280 2
281 320 2
321 360 5
361 400 5
401 440 3
441 480 1
481 520 5
521 560 2
561 600 2
601 640 4
641 680 2
681 720 2
721 760 4
761 800 4
801 840 2
841 880 5
881 920 5
921 960 1
961 1000 2
1001 1040 5
1041 1080 1
1081 1120 5
1121 1160 5
1161 1200 4
1201 1240 4
1241 1280 2
1281 1320 1
1321 1360 5
1361 1400 1
1401 1440 3
1441 1480 3
1481 1520 3
1521 1560 4
1561 1600 2
